\ENCODING=ISO-8859-1
\Problem name: 

Minimize
 obj: r
Subject To
 h11:          x111 + x121  = 2
 h12:          x112 + x122  = 3
 h13:          x113 + x123  = 4
 h14:          x114 + x124  = 5
 h21:          x211 + x221  = 3
 h22:          x212 + x222  = 4
 h23:          x213 + x223  = 5
 h24:          x214 + x224  = 6
 h31:          x311 + x321  = 4
 h32:          x312 + x322  = 5
 h33:          x313 + x323  = 6
 h34:          x314 + x324  = 7
 pathUtil11:   U11111 + U11121  = 3
 pathUtil12:   U12112 + U12122  = 3
 pathUtil13:   U13113 + U13123  = 3
 pathUtil14:   U14114 + U14124  = 3
 pathUtil21:   U21211 + U21221  = 3
 pathUtil22:   U22212 + U22222  = 3
 pathUtil23:   U23213 + U23223  = 3
 pathUtil24:   U24214 + U24224  = 3
 pathUtil31:   U31311 + U31321  = 3
 pathUtil32:   U32312 + U32322  = 3
 pathUtil33:   U33313 + U33323  = 3
 pathUtil34:   U34314 + U34324  = 3
 splith11:     - x111 + 0.666666666666667 U11111  = 0
 splith11:     - x121 + 0.666666666666667 U11121  = 0
 splith12:     - x112 + U12112  = 0
 splith12:     - x122 + U12122  = 0
 splith13:     - x113 + 1.33333333333333 U13113  = 0
 splith13:     - x123 + 1.33333333333333 U13123  = 0
 splith14:     - x114 + 1.66666666666667 U14114  = 0
 splith14:     - x124 + 1.66666666666667 U14124  = 0
 splith21:     - x211 + U21211  = 0
 splith21:     - x221 + U21221  = 0
 splith22:     - x212 + 1.33333333333333 U22212  = 0
 splith22:     - x222 + 1.33333333333333 U22222  = 0
 splith23:     - x213 + 1.66666666666667 U23213  = 0
 splith23:     - x223 + 1.66666666666667 U23223  = 0
 splith24:     - x214 + 2 U24214  = 0
 splith24:     - x224 + 2 U24224  = 0
 splith31:     - x311 + 1.33333333333333 U31311  = 0
 splith31:     - x321 + 1.33333333333333 U31321  = 0
 splith32:     - x312 + 1.66666666666667 U32312  = 0
 splith32:     - x322 + 1.66666666666667 U32322  = 0
 splith33:     - x313 + 2 U33313  = 0
 splith33:     - x323 + 2 U33323  = 0
 splith34:     - x314 + 2.33333333333333 U34314  = 0
 splith34:     - x324 + 2.33333333333333 U34324  = 0
 capacC11:     x111 + x112 + x113 + x114 - c11  = 0
 capacC12:     x121 + x122 + x123 + x124 - c12  = 0
 capacC21:     x211 + x212 + x213 + x214 - c21  = 0
 capacC22:     x221 + x222 + x223 + x224 - c22  = 0
 capacC31:     x311 + x312 + x313 + x314 - c31  = 0
 capacC32:     x321 + x322 + x323 + x324 - c32  = 0
 capacD11:     x111 + x211 + x311 - d11  = 0
 capacD12:     x112 + x212 + x312 - d12  = 0
 capacD13:     x113 + x213 + x313 - d13  = 0
 capacD14:     x114 + x214 + x314 - d14  = 0
 capacD21:     x121 + x221 + x321 - d21  = 0
 capacD22:     x122 + x222 + x322 - d22  = 0
 capacD23:     x123 + x223 + x323 - d23  = 0
 capacD24:     x124 + x224 + x324 - d24  = 0
 load1:        x111 + x112 + x113 + x114 + x211 + x212 + x213 + x214 + x311
               + x312 + x313 + x314 - loadk1  = 0
 load2:        x121 + x122 + x123 + x124 + x221 + x222 + x223 + x224 + x321
               + x322 + x323 + x324 - loadk2  = 0
 loadbalance1: - 0.0185185185185185 loadk1 + r >= 0
 loadbalance2: - 0.0185185185185185 loadk2 + r >= 0
Bounds
 0 <= U11111 <= 1
 0 <= U11121 <= 1
 0 <= U12112 <= 1
 0 <= U12122 <= 1
 0 <= U13113 <= 1
 0 <= U13123 <= 1
 0 <= U14114 <= 1
 0 <= U14124 <= 1
 0 <= U21211 <= 1
 0 <= U21221 <= 1
 0 <= U22212 <= 1
 0 <= U22222 <= 1
 0 <= U23213 <= 1
 0 <= U23223 <= 1
 0 <= U24214 <= 1
 0 <= U24224 <= 1
 0 <= U31311 <= 1
 0 <= U31321 <= 1
 0 <= U32312 <= 1
 0 <= U32322 <= 1
 0 <= U33313 <= 1
 0 <= U33323 <= 1
 0 <= U34314 <= 1
 0 <= U34324 <= 1
 0 <= r <= 1
Binaries
 U11111  U11121  U12112  U12122  U13113  U13123  U14114  U14124  U21211 
 U21221  U22212  U22222  U23213  U23223  U24214  U24224  U31311  U31321 
 U32312  U32322  U33313  U33323  U34314  U34324 
End
